30
3
20517
498 321 418
false
0.25
30 3 13 8 41 7 39 40 5 22 25 47 22 50 5 33 47 17 50 45 25 11 40 50 30 11 48 15 11 42
48 21 16 40 28 42 20 32 20 9 1 12 29 25 36 36 31 38 31 7 6 8 17 5 31 38 4 45 18 47
7 18 9 21 13 33 48 15 27 10 17 7 4 10 23 22 3 3 30 50 7 27 40 33 3 8 41 36 39 26
0 32 16 27 96 90 37 3 17 14 84 50 94 10 5 39 79 66 82 72 67 93 53 54 8 64 21 64 68 66
0 0 0 0 0 0 98 0 0 0 0 79 0 8 0 0 0 0 0 0 0 0 60 0 59 0 0 0 0 42
0 12 0 0 0 0 0 0 14 0 32 0 65 0 69 0 0 33 0 14 0 0 0 0 0 0 0 0 0
0 87 0 0 0 0 0 78 0 95 0 0 0 0 0 0 0 0 0 15 17 0 0 0 0 0 0 15
0 0 0 0 0 0 0 0 0 0 0 0 0 0 0 0 0 0 0 0 0 27 0 76 0 29 0
0 0 0 0 25 0 0 76 0 0 0 0 0 0 0 97 45 0 0 35 0 0 0 0 0 12
0 53 68 0 88 0 0 0 0 100 0 0 0 3 0 0 0 67 0 59 0 0 0 0 0
0 0 0 0 53 0 0 34 0 0 0 0 0 0 0 31 0 0 12 0 0 0 0 0
0 81 0 0 99 58 60 0 0 0 0 90 0 0 0 0 0 28 0 99 0 95 0
0 0 0 0 0 6 39 0 0 0 0 5 61 0 0 5 41 0 0 85 0 11
0 83 0 73 75 51 0 0 0 92 0 0 80 0 25 0 14 0 0 0 38
0 0 0 33 99 0 0 23 0 46 0 0 0 0 86 0 0 80 74 94
0 0 0 98 23 0 0 0 0 0 0 0 0 46 0 0 0 0 91
0 0 42 0 0 20 0 0 0 0 0 0 0 0 0 0 1 0
0 0 0 0 0 0 49 0 10 78 0 0 0 0 0 81 0
0 0 0 22 0 0 90 0 0 93 44 32 0 0 0 11
0 0 0 44 0 0 0 0 0 0 0 0 0 0 37
0 0 0 0 0 57 0 0 0 0 0 85 0 50
0 0 0 0 0 0 0 0 60 0 44 0 0
0 0 0 0 0 0 0 0 65 0 0 0
0 0 0 85 17 16 13 12 71 26 0
0 0 86 0 40 0 0 0 0 21
0 0 53 71 0 51 59 0 0
0 25 0 0 0 0 0 0
0 0 62 0 60 0 0
0 0 27 0 0 0
0 0 0 0 56
0 35 0 0
0 0 0
0 0
0 8 44 0 0 93 0 0 0 0 0 0 37 0 0 0 0 0 0 0 14 0 0 0 4 20 0 0 0
0 0 0 0 0 51 58 0 0 0 0 0 0 0 1 0 0 79 49 0 53 0 0 0 0 0 0 0
0 0 0 0 0 0 0 0 0 0 44 0 61 8 87 0 0 0 0 0 0 0 0 0 0 0 0
0 0 80 0 0 65 25 67 0 0 0 0 68 0 0 0 0 0 0 0 0 0 83 0 0 0
0 98 0 0 35 67 0 0 40 0 25 8 0 0 0 0 13 0 65 0 0 0 0 0 0
0 25 0 9 0 0 0 0 57 0 0 63 0 0 0 0 4 0 0 41 85 81 0 95
0 0 0 0 0 0 0 0 0 0 0 0 89 0 23 0 0 0 83 0 10 0 0
0 0 0 0 0 0 0 67 0 11 17 0 0 0 0 0 0 0 0 0 0 0
0 0 0 11 0 0 0 0 0 0 8 0 80 44 99 0 0 0 0 0 48
0 0 78 0 0 66 0 2 15 0 0 0 0 0 0 0 0 29 0 0
0 38 0 0 0 0 0 0 0 0 0 12 82 0 0 0 6 0 0
0 0 0 0 0 15 0 0 0 25 0 0 0 33 0 0 12 0
0 39 0 0 0 0 0 0 0 0 0 0 0 0 0 0 0
0 25 0 51 17 0 0 0 0 0 0 0 89 15 0 0
0 0 0 0 0 0 0 0 0 0 0 0 0 0 25
0 0 0 0 0 0 0 0 0 0 0 0 76 79
0 0 0 99 0 0 0 0 0 33 43 0 22
0 0 0 0 0 0 78 0 0 0 0 0
0 0 0 0 89 0 85 0 0 0 0
0 0 0 0 0 0 21 0 0 0
0 0 52 0 0 0 0 0 0
0 0 0 0 0 0 0 0
0 0 0 12 0 0 0
0 0 0 16 0 0
0 0 0 0 23
0 0 0 0
0 18 0
0 0
0
0 0 0 0 21 0 0 23 0 0 0 0 43 0 0 0 0 5 0 0 0 0 1 1 90 0 14 8
0 0 0 0 0 0 0 0 0 0 0 0 0 0 0 0 71 0 75 0 0 0 31 11 56 56 95
0 0 76 0 0 63 0 0 0 0 0 0 0 0 61 18 94 0 0 0 0 78 75 0 0 0
0 0 0 0 0 44 0 0 96 0 81 0 0 0 0 0 0 0 0 0 0 58 0 10 0
0 0 0 0 0 0 59 0 0 0 0 0 12 68 0 0 0 0 83 0 0 0 31 0
0 12 0 0 0 0 0 0 0 0 29 0 0 0 0 66 0 45 0 0 0 0 45
0 0 0 0 0 0 0 35 93 0 0 0 25 33 0 0 0 0 0 0 57 24
0 17 0 0 0 0 0 71 0 0 0 0 0 45 0 0 15 0 0 0 0
0 0 0 0 0 0 0 0 0 0 0 0 0 73 48 90 0 0 24 0
0 0 0 0 0 0 0 0 0 8 0 0 88 0 0 0 58 37 0
0 0 0 0 0 0 0 1 0 10 0 37 0 0 0 0 0 0
0 0 0 0 0 0 0 0 0 0 51 0 0 0 0 0 0
0 0 0 0 97 0 0 9 0 0 0 0 0 0 0 0
0 0 0 0 0 0 0 0 0 0 84 0 0 61 0
0 0 0 0 0 0 66 0 0 0 0 0 44 0
0 0 0 0 0 0 0 70 0 0 0 0 0
0 0 0 84 0 0 0 0 0 0 0 0
0 89 0 0 0 0 45 0 0 0 0
0 0 28 0 0 37 0 72 58 77
0 0 0 91 0 0 32 0 88
0 0 0 0 0 0 0 0
0 0 0 93 0 0 0
0 9 0 69 0 85
0 0 0 10 0
0 0 0 38
0 88 0
0 0
0
0 0 0 0 0 0 0 0 55 0 83 0 0 16 0 0 0 38 0 0 0 0 56 0 0 49 0
0 0 0 0 0 0 0 0 0 0 0 0 0 0 0 0 0 46 0 0 0 74 0 40 28 48
0 0 0 0 75 88 0 0 0 0 0 0 0 0 0 0 0 91 0 0 0 0 0 0 0
0 72 0 21 80 0 65 0 24 0 0 0 36 0 0 0 0 100 0 81 0 5 0 87
0 0 0 0 0 50 0 0 0 0 6 0 0 0 0 0 0 0 0 19 0 0 0
0 21 0 0 0 58 0 0 0 0 0 75 54 0 0 0 10 0 50 0 0 0
0 0 82 0 0 0 0 0 0 5 85 0 19 0 0 0 0 0 7 0 95
0 0 0 30 0 0 45 74 53 0 0 0 13 0 0 0 0 3 0 0
0 69 10 6 74 0 0 57 0 40 0 0 0 0 0 0 0 0 0
0 94 0 0 94 0 0 0 0 0 0 0 0 21 0 0 24 0
0 0 0 0 0 0 0 0 0 0 0 35 0 0 0 0 56
0 0 0 95 0 0 0 0 86 0 0 73 0 0 68 0
0 0 69 73 0 63 0 0 88 0 0 0 0 26 0
0 0 0 0 0 0 0 0 0 0 0 0 77 0
0 0 0 0 0 0 33 0 0 0 0 60 0
0 0 31 0 0 0 0 24 0 0 97 0
0 0 96 0 0 0 86 0 0 0 0
0 0 0 0 0 0 0 0 0 0
0 0 0 0 23 0 0 0 0
0 65 0 0 15 0 38 0
0 0 0 0 0 0 0
0 0 59 0 0 0
0 0 0 0 0
0 0 0 36
0 0 0
0 0
0
0 0 0 0 0 0 0 88 0 0 0 0 0 78 0 0 0 5 0 0 0 0 0 0 0 22
0 0 0 0 0 0 0 0 77 0 0 0 0 67 0 0 0 0 0 0 0 0 0 0 0
0 72 0 31 0 73 75 20 0 0 0 0 0 0 41 91 0 0 80 0 20 0 0 0
0 0 0 0 0 0 0 32 0 0 0 0 0 0 0 5 43 0 51 0 41 20 0
0 66 0 0 0 0 0 93 0 0 0 0 65 0 0 0 0 0 0 0 0 0
0 0 0 0 0 0 75 0 0 0 0 22 35 98 35 85 0 0 0 8 70
0 0 0 0 49 0 64 0 0 18 0 0 0 0 33 0 0 0 0 0
0 0 0 0 0 68 37 0 0 0 77 68 93 0 0 0 29 0 18
0 47 51 0 0 0 0 0 44 0 0 44 19 0 0 82 0 22
0 0 97 0 0 0 0 0 0 66 0 0 0 0 0 1 25
0 0 0 89 7 0 0 0 0 21 0 0 79 0 90 0
0 0 0 0 46 0 0 0 0 0 94 0 0 31 0
0 0 0 0 0 0 0 87 0 0 94 0 0 24
0 0 7 0 0 0 0 0 12 0 0 56 0
0 0 0 0 0 0 46 0 35 0 0 0
0 0 0 0 0 0 0 0 0 0 0
0 0 49 33 0 23 5 0 0 0
0 37 0 0 0 46 0 0 0
0 47 0 0 70 0 36 0
0 0 0 0 0 0 0
0 0 0 0 0 8
0 50 27 0 34
0 58 0 0
0 0 34
0 0
0
0 0 16 0 0 0 0 0 0 0 0 73 0 0 0 52 39 0 0 0 18 0 0 1 0
0 0 0 0 57 0 0 86 0 0 0 0 0 0 0 64 0 80 0 0 5 0 0 0
0 0 0 0 0 52 0 0 19 0 0 0 0 0 47 0 0 0 0 0 3 0 0
0 0 0 38 0 20 0 0 24 0 0 0 0 0 0 0 0 98 0 0 0 46
0 93 0 0 96 20 0 0 0 40 0 87 0 54 0 53 0 0 0 0 0
0 31 0 35 0 0 83 0 15 0 0 0 0 0 98 0 0 0 82 0
0 93 37 0 0 0 0 0 0 0 0 0 0 0 1 0 0 0 0
0 0 0 0 0 0 0 0 0 0 0 0 0 0 0 0 0 0
0 80 52 29 0 0 0 0 3 19 61 0 0 0 99 0 0
0 0 0 0 0 57 11 0 4 0 63 0 0 86 0 0
0 0 0 0 0 0 0 0 0 0 0 2 41 34 0
0 0 0 32 0 0 0 0 0 24 0 0 0 0
0 0 0 0 0 0 0 100 0 0 3 21 0
0 0 74 60 99 0 0 0 0 0 0 0
0 0 0 0 0 0 0 0 0 0 0
0 81 78 78 38 0 0 0 0 0
0 0 0 0 0 0 0 0 0
0 3 0 0 0 39 0 0
0 52 17 2 0 9 0
0 0 0 34 0 0
0 64 0 0 0
0 0 50 0
0 0 83
0 0
0
0 0 86 0 0 0 79 24 20 0 0 0 58 0 35 0 14 0 87 0 5 9 0 14
0 0 0 7 0 40 0 0 0 0 88 40 0 0 0 0 0 0 0 0 0 0 0
0 0 98 1 0 2 0 0 0 0 0 0 0 0 0 0 52 0 34 68 0 0
0 0 0 0 0 0 43 93 0 0 0 15 0 0 0 0 0 0 0 0 0
0 53 0 0 0 3 0 0 65 0 0 0 0 0 0 0 41 53 0 0
0 0 84 0 0 0 0 41 0 0 0 0 0 0 0 32 0 0 0
0 0 5 0 69 0 0 0 100 0 73 0 0 28 0 0 0 0
0 0 0 0 0 29 0 0 35 12 0 0 0 0 0 0 0
0 46 24 0 0 0 21 0 0 0 0 19 0 0 0 0
0 0 0 0 0 0 0 0 0 0 0 0 0 0 0
0 0 0 0 0 0 0 0 0 0 0 0 0 66
0 0 0 0 0 0 0 0 0 0 0 0 0
0 0 0 10 0 0 0 12 0 0 0 0
0 0 67 0 82 4 55 0 0 0 0
0 0 0 0 0 0 77 0 0 0
0 31 0 34 0 0 51 17 33
0 0 0 0 0 78 95 0
0 0 0 0 0 23 0
0 36 0 0 31 0
0 0 0 0 0
0 0 0 0
0 86 0
0 0
0
0 0 19 0 26 59 0 0 99 0 0 0 0 0 0 85 16 0 0 0 0 0 0
0 0 0 0 0 0 0 0 0 58 0 0 0 33 0 52 27 0 23 0 0 17
0 0 84 0 0 0 0 0 80 0 0 0 75 0 0 0 0 0 0 27 0
0 0 0 0 0 0 0 0 79 17 0 0 0 0 61 76 0 0 0 0
0 0 0 93 0 66 34 0 0 33 21 0 0 16 0 60 0 0 0
0 0 10 48 0 7 0 0 49 0 15 67 0 0 0 0 0 0
0 58 0 0 0 67 0 3 0 0 4 0 26 13 9 0 0
0 0 0 0 29 0 0 0 76 0 0 0 0 0 0 0
0 84 0 0 97 5 0 0 4 0 0 0 0 0 0
0 0 0 0 0 29 46 0 64 0 0 0 70 0
0 59 3 0 81 0 0 8 99 0 0 0 0
0 0 74 79 0 65 0 0 0 62 0 0
0 0 0 35 0 0 23 62 54 0 0
0 0 72 0 0 0 49 0 0 0
0 34 97 0 48 0 0 0 0
0 39 60 0 0 32 0 0
0 0 0 0 0 0 0
0 0 0 0 88 0
0 36 0 84 0
0 23 100 0
0 0 0
0 0
0
0 70 0 0 0 0 0 0 0 0 0 0 88 0 46 0 0 0 16 0 0 0
0 0 48 0 0 81 0 0 0 0 0 0 0 0 79 0 0 0 0 0 0
0 1 0 0 0 7 0 0 0 0 0 0 0 0 0 0 0 0 0 0
0 0 0 17 0 0 0 0 0 0 0 0 0 50 97 0 45 0 0
0 0 0 60 0 76 36 38 92 0 85 0 0 3 0 0 63 0
0 0 0 65 0 0 0 38 0 72 0 0 0 0 0 0 0
0 0 99 0 40 0 61 36 97 0 0 0 0 0 0 0
0 0 31 0 16 50 0 59 18 0 29 0 0 0 0
0 0 0 0 0 0 0 0 67 14 26 0 0 0
0 0 63 0 0 0 43 0 76 0 0 0 0
0 0 0 0 28 0 0 0 0 0 0 0
0 0 0 9 0 0 0 0 0 0 0
0 48 0 0 0 0 0 0 0 0
0 9 0 0 0 89 63 0 43
0 0 71 0 0 0 46 0
0 0 0 0 0 0 97
0 0 0 0 0 0
0 0 0 76 0
0 0 0 90
0 41 65
0 0
0
0 0 0 0 0 0 0 91 90 0 22 0 0 0 64 53 0 0 62 0 60
0 0 0 0 0 0 0 0 0 0 0 0 61 0 0 0 0 0 0 0
0 0 0 0 0 0 0 0 0 0 0 0 0 0 0 0 9 0 91
0 0 0 88 0 42 0 79 0 0 0 0 28 0 0 0 74 0
0 0 0 0 0 63 0 0 6 0 0 0 15 0 0 0 0
0 0 94 0 0 0 0 0 32 0 12 0 0 0 96 0
0 19 0 0 66 10 75 0 0 0 25 0 0 0 0
0 22 0 0 0 0 0 0 22 0 0 0 0 0
0 8 1 0 0 0 0 75 0 0 0 92 52
0 42 0 0 61 0 8 0 2 0 0 0
0 0 0 0 0 0 63 0 67 0 83
0 10 36 0 0 0 0 0 0 0
0 59 0 71 0 0 0 0 0
0 0 0 11 16 0 0 0
0 0 88 93 0 16 0
0 0 0 0 0 0
0 0 0 0 8
0 0 35 0
0 21 0
0 0
0
0 0 0 0 0 0 0 70 0 0 0 0 0 0 0 57 0 0 0 0
0 0 51 0 87 0 0 76 0 0 0 0 36 0 0 0 0 94 0
0 3 0 0 0 0 0 0 0 0 4 0 0 0 0 0 0 60
0 0 0 0 0 64 0 56 0 0 0 0 0 94 0 0 0
0 60 0 55 0 0 0 0 0 0 0 0 0 0 88 68
0 0 0 88 0 0 0 0 21 82 0 0 21 68 0
0 0 77 0 0 76 0 0 79 0 0 0 0 65
0 0 0 0 47 38 0 0 0 74 0 0 0
0 0 0 0 0 97 0 88 0 42 0 0
0 0 0 57 19 0 0 0 0 0 0
0 36 0 0 0 66 0 0 0 0
0 66 70 89 58 0 0 0 0
0 38 0 0 0 0 40 37
0 40 0 0 0 0 0
0 70 0 0 0 0
0 6 0 74 0
0 0 0 0
0 0 11
0 80
0
0 0 65 0 0 50 0 11 51 0 0 0 0 23 63 69 0 0 0
0 0 0 43 0 0 0 0 0 0 22 0 0 0 66 0 0 0
0 0 0 0 0 0 45 28 0 22 0 0 0 0 82 79 0
0 0 0 0 16 0 0 0 0 0 0 0 13 0 0 30
0 0 0 0 0 0 0 0 40 0 0 0 0 59 0
0 0 0 0 99 0 0 0 0 34 74 0 0 0
0 0 0 0 37 77 0 0 7 0 95 0 81
0 0 0 26 0 0 0 0 0 0 0 0
0 0 0 0 0 0 0 0 0 0 0
0 0 0 0 52 89 0 0 0 0
0 0 0 0 65 0 0 0 0
0 0 0 0 62 0 37 0
0 0 0 81 74 0 0
0 0 75 94 0 0
0 53 0 0 0
0 33 2 0
0 0 0
0 4
0
0 0 0 80 36 0 0 0 100 0 85 0 0 0 0 6 0 0
0 0 0 0 0 39 0 0 57 0 0 0 0 36 0 0 78
0 48 0 0 0 0 0 0 0 65 0 0 0 0 0 0
0 0 65 0 0 0 87 0 87 0 0 0 0 16 0
0 0 0 0 0 0 0 0 0 0 0 0 0 0
0 0 0 0 34 0 0 66 0 2 0 0 0
0 0 0 0 0 10 0 0 0 54 0 0
0 0 0 0 0 0 0 0 0 0 53
0 89 0 0 0 0 0 0 0 0
0 0 79 0 0 17 0 0 32
0 0 0 36 0 54 0 0
0 0 30 0 0 30 0
0 22 73 0 0 0
0 0 36 0 90
0 0 0 0
0 3 0
0 0
0
0 0 0 0 0 0 0 0 0 0 29 0 0 36 0 0 0
0 76 0 0 0 0 0 62 0 0 0 0 0 0 0 0
0 93 0 0 0 0 0 0 0 0 0 0 0 0 0
0 0 6 0 0 0 0 35 0 42 0 0 38 0
0 0 0 0 0 0 32 0 0 0 0 98 0
0 68 0 41 0 0 24 0 98 98 0 0
0 13 0 0 0 0 0 0 0 0 0
0 0 0 0 0 0 0 0 0 0
0 0 0 0 0 0 0 0 0
0 0 0 0 0 0 0 30
0 0 0 42 0 8 0
0 1 0 0 59 0
0 0 0 0 0
0 0 0 36
0 0 77
0 84
0
0 0 0 0 19 37 0 0 98 0 0 0 41 0 0 8
0 97 96 0 0 89 0 0 0 0 0 0 45 0 0
0 0 0 0 79 36 0 0 74 0 0 0 96 0
0 0 0 0 0 0 0 0 0 0 0 0 0
0 0 0 0 69 0 0 36 0 96 28 0
0 0 0 0 0 11 0 32 0 0 0
0 66 27 25 0 0 0 0 0 0
0 0 0 0 0 0 16 0 0
0 0 0 0 0 32 0 0
0 0 0 46 0 0 17
0 0 0 47 0 0
0 0 0 0 0
0 2 0 0
0 0 0
0 0
0
0 41 0 0 0 0 6 0 0 0 0 0 0 0 0
0 0 0 0 44 0 0 44 0 8 0 0 0 0
0 48 65 0 0 0 33 0 0 0 0 0 61
0 0 0 0 0 0 0 0 0 0 38 0
0 0 0 0 97 0 41 0 0 0 0
0 0 83 30 0 0 0 0 0 0
0 0 0 0 0 32 0 0 0
0 0 32 0 0 66 91 0
0 0 0 0 0 0 0
0 0 0 49 0 0
0 0 0 0 0
0 0 75 65
0 66 67
0 1
0
0 0 0 0 0 40 0 84 0 0 13 0 0 0
0 0 45 0 0 98 69 0 0 94 0 0 0
0 0 0 70 0 0 20 78 0 0 67 47
0 47 0 0 28 0 0 0 0 0 0
0 0 0 0 0 86 0 0 0 0
0 0 0 0 0 0 0 0 0
0 0 0 0 0 0 85 0
0 0 0 0 0 0 0
0 0 0 0 0 0
0 0 0 0 57
0 0 0 0
0 0 0
0 0
0
0 0 0 0 0 0 0 0 0 3 0 0 0
0 0 0 0 43 60 0 0 0 0 0 26
0 0 39 0 0 50 0 0 0 0 0
0 0 0 8 0 0 0 0 96 0
0 0 0 0 71 0 0 0 16
0 0 0 0 0 76 0 0
0 0 0 0 0 0 28
0 0 80 0 0 78
0 72 0 0 0
0 0 0 0
0 81 0
0 14
0
0 0 0 0 0 0 0 0 0 0 0 0
0 0 0 78 49 0 0 43 0 0 0
0 0 27 0 0 6 0 0 0 0
0 0 0 0 0 0 59 89 0
0 0 0 0 0 78 0 0
0 0 0 0 0 0 0
0 0 0 0 0 4
0 79 0 45 0
0 36 0 51
0 0 0
0 0
0
0 0 98 0 0 0 0 0 0 0 0
0 0 0 0 0 0 0 0 0 19
0 0 42 0 10 66 39 0 83
0 0 0 65 15 0 0 0
0 44 0 0 21 0 0
0 0 0 10 0 0
0 30 0 35 0
0 0 38 0
0 0 0
0 0
0
0 0 26 24 0 0 0 11 0 0
0 0 0 0 27 0 0 0 81
0 0 0 0 0 19 0 0
0 0 0 0 0 87 0
0 0 0 0 0 0
0 0 0 0 0
0 96 0 0
0 0 51
0 0
0
0 0 0 0 0 0 0 0 0
0 0 63 0 0 80 0 0
0 0 0 0 0 0 66
0 0 0 0 0 0
0 0 0 0 0
0 0 59 6
0 79 0
0 0
0
0 0 0 67 0 0 0 0
0 2 0 0 89 38 0
0 0 0 83 39 0
0 0 0 0 19
0 10 0 0
0 0 0
0 74
0
0 0 0 0 0 0 81
0 5 10 1 74 0
0 0 0 0 0
0 0 0 0
0 0 0
0 0
0
0 0 0 0 0 0
0 0 83 0 0
0 0 97 0
0 72 0
0 0
0
0 0 100 68 0
0 0 72 35
0 0 0
0 0
0
0 48 0 0
0 36 49
0 0
0
0 0 0
0 0
0
0 0
0
0
4266 4760 5013 5293 5106 4498 6878 5059 4786 6735 5254 5602 4697 4986 5292 5224 5050 4822 5049 4194 4828 5677 5658 5435 4897 5176 5163 5361 5758 4743
280.16785714285714 692.5925925925926 418.64262820512823 348.66587301587305 233.22098633074242 295.32323232323233 221.18354700854698 207.27847222222223 457.9197530864198 575.989898989899 1924.4062745098038 462.10351232691664 516.5718390804598 265.92 478.495652173913 180.28956228956233 651.2277892168078 672.625042999656 144.05032258064517 258.74095238095236 562.5003174603174 478.6583894500561 205.24117647058824 453.4656565656566 651.1781362007168 417.91866028708137 508.07977642276427 208.48333333333332 330.32815332815335 132.0888473228899
